certificates/rado_a5_c88_N18.cnf
c Rad2 upper bound instance: x1 + 5*x2 - x3 = 88, interval [1,18]
p cnf 18 90
1 3 18 0
-1 -3 -18 0
2 4 18 0
-2 -4 -18 0
3 5 18 0
-3 -5 -18 0
1 4 17 0
-1 -4 -17 0
4 6 18 0
-4 -6 -18 0
2 5 17 0
-2 -5 -17 0
5 7 18 0
-5 -7 -18 0
3 6 17 0
-3 -6 -17 0
6 8 18 0
-6 -8 -18 0
4 7 17 0
-4 -7 -17 0
7 9 18 0
-7 -9 -18 0
5 8 17 0
-5 -8 -17 0
8 10 18 0
-8 -10 -18 0
1 9 16 0
-1 -9 -16 0
6 9 17 0
-6 -9 -17 0
9 11 18 0
-9 -11 -18 0
2 10 16 0
-2 -10 -16 0
7 10 17 0
-7 -10 -17 0
10 12 18 0
-10 -12 -18 0
3 11 16 0
-3 -11 -16 0
8 11 17 0
-8 -11 -17 0
11 13 18 0
-11 -13 -18 0
4 12 16 0
-4 -12 -16 0
9 12 17 0
-9 -12 -17 0
12 14 18 0
-12 -14 -18 0
5 13 16 0
-5 -13 -16 0
10 13 17 0
-10 -13 -17 0
13 15 18 0
-13 -15 -18 0
1 14 15 0
-1 -14 -15 0
6 14 16 0
-6 -14 -16 0
11 14 17 0
-11 -14 -17 0
14 16 18 0
-14 -16 -18 0
2 15 0
-2 -15 0
7 15 16 0
-7 -15 -16 0
12 15 17 0
-12 -15 -17 0
15 17 18 0
-15 -17 -18 0
3 15 16 0
-3 -15 -16 0
8 16 0
-8 -16 0
13 16 17 0
-13 -16 -17 0
16 18 0
-16 -18 0
4 15 17 0
-4 -15 -17 0
9 16 17 0
-9 -16 -17 0
14 17 0
-14 -17 0
5 15 18 0
-5 -15 -18 0
10 16 18 0
-10 -16 -18 0
