certificates/rado_a5_c88_N18.drat
-18 0
16 0
-8 0
6 0
10 0
-14 0
-2 0
12 0
17 0
15 0
4 0
0
